flow=[(5,0,0)(5,1,0)(5,2,0)(5,4,0)(5,6,8)(5,7,0)(5,8,0)(5,9,0)(5,10,0)(5,11,0)(5,12,0)(5,13,0)(6,1,3)(6,5,1)(6,7,7)(6,10,1)(6,11,20)(8,9,5)(10,6,4)(11,6,0)(11,9,3)(11,10,0)(11,12,10)(12,5,2)(12,6,0)(12,10,0)(12,13,0)];
